NAME : random_4
COMMENT : 60 random nodes
TYPE : TSP
DIMENSION : 60
EDGE_WEIGHT_TYPE : EUC_2D
NODE_COORD_SECTION
1 36 445
2 486 486
3 131 965
4 962 139
5 53 536
6 67 980
7 654 320
8 352 192
9 872 98
10 594 597
11 486 948
12 756 948
13 604 6
14 978 10
15 850 64
16 13 863
17 928 574
18 731 222
19 464 111
20 399 644
21 23 143
22 623 680
23 90 433
24 628 40
25 823 701
26 756 20
27 554 120
28 880 428
29 315 995
30 43 954
31 203 527
32 135 126
33 615 284
34 333 52
35 535 748
36 489 764
37 582 437
38 747 533
39 607 839
40 695 886
41 684 515
42 322 100
43 539 382
44 216 610
45 421 349
46 862 974
47 429 849
48 828 819
49 276 399
50 89 358
51 687 178
52 663 152
53 116 92
54 792 410
55 607 214
56 664 524
57 151 727
58 228 132
59 347 550
60 244 192
EOF